Traveling Salesman Problem/TSP_generados/Aleatorio1621103626_16.tsp
NAME: Aleatorio1621103626_16.tsp
COMMENT: Randomly generated scenario
TYPE: TSP
DIMENSION: 16
EDGE_WEIGHT_TYPE: ATT
NODE_COORD_SECTION
1 10.84 26.26
2 36.62 36.51
3 30.01 26.37
4 4.02 29.52
5 42.17 3.19
6 1.43 40.4
7 40.45 35.09
8 9.92 6.02
9 37.22 23.22
10 37.0 46.35
11 33.31 0.22
12 33.28 11.6
13 14.14 12.19
14 46.86 30.74
15 34.35 23.39
16 13.15 31.9
