Traveling Salesman Problem/TSP_generados/Aleatorio1621103626_16.opt.tour
NAME: Aleatorio1621103626_16.opt.tour
COMMENT: Optimal solution for Aleatorio1621103626_16 (185.88665494714525)
TYPE: TOUR
DIMENSION: 16
TOUR_SECTION
1 13 8 11 5 12 3 15 9 14 7 2 10 16 6 4
-1
EOF
